10
2 1 52
3 1 65
3 2 57
4 0 9
4 2 140
4 3 113
5 0 39
5 1 101
5 2 150
6 1 114
6 2 127
6 4 33
6 5 78
7 0 22
7 2 82
7 3 117
7 4 148
7 6 150
8 0 27
8 1 92
8 2 159
8 4 151
8 5 17
8 6 13
8 7 104
9 1 117
9 4 117
9 5 146
9 7 103
9 8 103
